SumColouring/JavaBacktracker/RandomInstances/26_0.55_3.col
c File: instances/26_0.55_3.col
c
c Description: Random graph of size 26 vertices and P(0.5499999999999999) of edges between any two vertices.
p col 26 325
e 1 2
e 1 3
e 1 6
e 1 7
e 1 8
e 1 9
e 1 10
e 1 11
e 1 17
e 1 20
e 1 21
e 1 23
e 1 25
e 2 3
e 2 5
e 2 7
e 2 9
e 2 10
e 2 11
e 2 13
e 2 17
e 2 20
e 2 21
e 2 22
e 2 23
e 2 24
e 2 25
e 2 26
e 3 5
e 3 8
e 3 11
e 3 12
e 3 13
e 3 15
e 3 16
e 3 19
e 3 20
e 3 22
e 3 23
e 3 24
e 3 26
e 4 5
e 4 7
e 4 9
e 4 10
e 4 11
e 4 12
e 4 14
e 4 15
e 4 16
e 4 17
e 4 18
e 4 19
e 4 22
e 4 23
e 4 24
e 5 8
e 5 9
e 5 10
e 5 11
e 5 12
e 5 14
e 5 20
e 5 21
e 5 23
e 5 24
e 5 25
e 6 8
e 6 9
e 6 10
e 6 12
e 6 13
e 6 14
e 6 16
e 6 19
e 6 20
e 6 22
e 6 23
e 6 24
e 6 25
e 7 9
e 7 10
e 7 11
e 7 12
e 7 14
e 7 15
e 7 16
e 7 17
e 7 18
e 7 19
e 7 21
e 7 26
e 8 10
e 8 12
e 8 13
e 8 15
e 8 16
e 8 17
e 8 18
e 8 19
e 8 20
e 8 21
e 8 22
e 8 24
e 8 25
e 9 10
e 9 12
e 9 14
e 9 15
e 9 16
e 9 17
e 9 18
e 9 20
e 9 23
e 9 24
e 9 25
e 10 16
e 10 17
e 10 18
e 10 21
e 10 23
e 10 25
e 11 12
e 11 13
e 11 14
e 11 18
e 11 19
e 11 21
e 11 24
e 11 25
e 11 26
e 12 14
e 12 16
e 12 21
e 12 24
e 12 25
e 12 26
e 13 14
e 13 16
e 13 17
e 13 20
e 13 21
e 13 23
e 13 25
e 13 26
e 14 15
e 14 17
e 14 18
e 14 20
e 14 21
e 14 22
e 14 25
e 14 26
e 15 17
e 15 18
e 15 19
e 15 20
e 15 21
e 15 22
e 15 23
e 15 24
e 15 26
e 16 18
e 16 19
e 16 24
e 17 20
e 18 20
e 18 22
e 19 22
e 19 23
e 19 24
e 19 26
e 20 21
e 20 22
e 20 23
e 21 24
e 21 26
e 22 23
e 22 24
e 22 25
e 22 26
e 23 25
e 25 26