SumColouring/MiniZinc model/Experiments/26_0.55_3.col.dzn
% Data file generated from RandomInstances/26_0.55_3.col DIMACS file
size = 26;

chi = 7;

adjacency = [|0,1,1,0,0,1,1,1,1,1,1,0,0,0,0,0,1,0,0,1,1,0,1,0,1,0,
|1,0,1,0,1,0,1,0,1,1,1,0,1,0,0,0,1,0,0,1,1,1,1,1,1,1,
|1,1,0,0,1,0,0,1,0,0,1,1,1,0,1,1,0,0,1,1,0,1,1,1,0,1,
|0,0,0,0,1,0,1,0,1,1,1,1,0,1,1,1,1,1,1,0,0,1,1,1,0,0,
|0,1,1,1,0,0,0,1,1,1,1,1,0,1,0,0,0,0,0,1,1,0,1,1,1,0,
|1,0,0,0,0,0,0,1,1,1,0,1,1,1,0,1,0,0,1,1,0,1,1,1,1,0,
|1,1,0,1,0,0,0,0,1,1,1,1,0,1,1,1,1,1,1,0,1,0,0,0,0,1,
|1,0,1,0,1,1,0,0,0,1,0,1,1,0,1,1,1,1,1,1,1,1,0,1,1,0,
|1,1,0,1,1,1,1,0,0,1,0,1,0,1,1,1,1,1,0,1,0,0,1,1,1,0,
|1,1,0,1,1,1,1,1,1,0,0,0,0,0,0,1,1,1,0,0,1,0,1,0,1,0,
|1,1,1,1,1,0,1,0,0,0,0,1,1,1,0,0,0,1,1,0,1,0,0,1,1,1,
|0,0,1,1,1,1,1,1,1,0,1,0,0,1,0,1,0,0,0,0,1,0,0,1,1,1,
|0,1,1,0,0,1,0,1,0,0,1,0,0,1,0,1,1,0,0,1,1,0,1,0,1,1,
|0,0,0,1,1,1,1,0,1,0,1,1,1,0,1,0,1,1,0,1,1,1,0,0,1,1,
|0,0,1,1,0,0,1,1,1,0,0,0,0,1,0,0,1,1,1,1,1,1,1,1,0,1,
|0,0,1,1,0,1,1,1,1,1,0,1,1,0,0,0,0,1,1,0,0,0,0,1,0,0,
|1,1,0,1,0,0,1,1,1,1,0,0,1,1,1,0,0,0,0,1,0,0,0,0,0,0,
|0,0,0,1,0,0,1,1,1,1,1,0,0,1,1,1,0,0,0,1,0,1,0,0,0,0,
|0,0,1,1,0,1,1,1,0,0,1,0,0,0,1,1,0,0,0,0,0,1,1,1,0,1,
|1,1,1,0,1,1,0,1,1,0,0,0,1,1,1,0,1,1,0,0,1,1,1,0,0,0,
|1,1,0,0,1,0,1,1,0,1,1,1,1,1,1,0,0,0,0,1,0,0,0,1,0,1,
|0,1,1,1,0,1,0,1,0,0,0,0,0,1,1,0,0,1,1,1,0,0,1,1,1,1,
|1,1,1,1,1,1,0,0,1,1,0,0,1,0,1,0,0,0,1,1,0,1,0,0,1,0,
|0,1,1,1,1,1,0,1,1,0,1,1,0,0,1,1,0,0,1,0,1,1,0,0,0,0,
|1,1,0,0,1,1,0,1,1,1,1,1,1,1,0,0,0,0,0,0,0,1,1,0,0,1,
|0,1,1,0,0,0,1,0,0,0,1,1,1,1,1,0,0,0,1,0,1,1,0,0,1,0,
|];